19
 1 266 14
 2 54 3
 3 170 10
 4 304 19
 5 75 5
 6 252 18
 7 91 7
 8 144 12
 9 132 12
 10 120 12
 11 36 4
 12 152 19
 13 28 4
 14 24 4
 15 85 17
 16 44 11
 17 24 8
 18 40 20
 19 20 20
266